\ENCODING=ISO-8859-1
\Problem name: 

Minimize
 obj1: 15 x1_3 + 15 x1_4 + 10 x1_5 + 21.9999978281139 x1_6 + 10 x1_7 + 15 x2_1
       + 6.99999782811395 x2_6 + 15.41275957175 x2_7 + 21.9999978281139 x3_1
       + 6.99999782811395 x3_2 + 6.99999782811395 x3_4 + 6.99999782811395 x3_5
       + 12.0000000009572 x3_7 + 17.5674638925649 x4_1 + 15.41275957175 x4_2
       + 12.0000000009572 x4_3 + 15.41275957175 x4_5 + 10 x5_2
       + 18.0277563773199 x5_3 + 17.5674638925649 x5_4 + 17.5674638925649 x5_6
Subject To
 c1:  x1_1 + x2_1 + x3_1 + x4_1 + x5_1  = 1
 c2:  x1_2 + x2_2 + x3_2 + x4_2 + x5_2  = 1
 c3:  x1_3 + x2_3 + x3_3 + x4_3 + x5_3  = 1
 c4:  x1_4 + x2_4 + x3_4 + x4_4 + x5_4  = 1
 c5:  x1_5 + x2_5 + x3_5 + x4_5 + x5_5  = 1
 c6:  x1_6 + x2_6 + x3_6 + x4_6 + x5_6  = 1
 c7:  x1_7 + x2_7 + x3_7 + x4_7 + x5_7  = 1
 c8:  w1 + w2 + w3 + w4 + w5  = 2
 c9:  10 x1_1 + 15 x1_2 + 6.99999782811395 x1_3 + 15.41275957175 x1_4
      + 18.0277563773199 x1_5 + 12.0000000009572 x1_6 + 17.5674638925649 x1_7
      - 71.2559832530295 w1 <= 0
 c10: 10 x2_1 + 15 x2_2 + 6.99999782811395 x2_3 + 15.41275957175 x2_4
      + 18.0277563773199 x2_5 + 12.0000000009572 x2_6 + 17.5674638925649 x2_7
      - 71.2559832530295 w2 <= 0
 c11: 10 x3_1 + 15 x3_2 + 6.99999782811395 x3_3 + 15.41275957175 x3_4
      + 18.0277563773199 x3_5 + 12.0000000009572 x3_6 + 17.5674638925649 x3_7
      - 71.2559832530295 w3 <= 0
 c12: 10 x4_1 + 15 x4_2 + 6.99999782811395 x4_3 + 15.41275957175 x4_4
      + 18.0277563773199 x4_5 + 12.0000000009572 x4_6 + 17.5674638925649 x4_7
      - 71.2559832530295 w4 <= 0
 c13: 10 x5_1 + 15 x5_2 + 6.99999782811395 x5_3 + 15.41275957175 x5_4
      + 18.0277563773199 x5_5 + 12.0000000009572 x5_6 + 17.5674638925649 x5_7
      - 71.2559832530295 w5 <= 0
 c14: 10 x1_1 + 15 x1_2 + 6.99999782811395 x1_3 + 15.41275957175 x1_4
      + 18.0277563773199 x1_5 + 12.0000000009572 x1_6 + 17.5674638925649 x1_7
      - 23.7519944176765 w1 >= 0
 c15: 10 x2_1 + 15 x2_2 + 6.99999782811395 x2_3 + 15.41275957175 x2_4
      + 18.0277563773199 x2_5 + 12.0000000009572 x2_6 + 17.5674638925649 x2_7
      - 23.7519944176765 w2 >= 0
 c16: 10 x3_1 + 15 x3_2 + 6.99999782811395 x3_3 + 15.41275957175 x3_4
      + 18.0277563773199 x3_5 + 12.0000000009572 x3_6 + 17.5674638925649 x3_7
      - 23.7519944176765 w3 >= 0
 c17: 10 x4_1 + 15 x4_2 + 6.99999782811395 x4_3 + 15.41275957175 x4_4
      + 18.0277563773199 x4_5 + 12.0000000009572 x4_6 + 17.5674638925649 x4_7
      - 23.7519944176765 w4 >= 0
 c18: 10 x5_1 + 15 x5_2 + 6.99999782811395 x5_3 + 15.41275957175 x5_4
      + 18.0277563773199 x5_5 + 12.0000000009572 x5_6 + 17.5674638925649 x5_7
      - 23.7519944176765 w5 >= 0
 c19: - x1_2 + x1_3 <= 0
 c20: - x1_2 + x1_4 <= 0
 c21: - x1_1 + x1_5 <= 0
 c22: - x1_3 + x1_6 <= 0
 c23: - x1_1 + x1_7 <= 0
 c24: x2_1 - x2_2 <= 0
 c25: - x2_3 + x2_6 <= 0
 c26: - x2_4 + x2_7 <= 0
 c27: x3_1 - x3_2 <= 0
 c28: x3_2 - x3_3 <= 0
 c29: - x3_3 + x3_4 <= 0
 c30: - x3_3 + x3_5 <= 0
 c31: - x3_6 + x3_7 <= 0
 c32: x4_1 - x4_7 <= 0
 c33: x4_2 - x4_4 <= 0
 c34: x4_3 - x4_6 <= 0
 c35: - x4_4 + x4_5 <= 0
 c36: - x5_1 + x5_2 <= 0
 c37: x5_3 - x5_5 <= 0
 c38: x5_4 - x5_7 <= 0
 c39: x5_6 - x5_7 <= 0
 c40: x1_1 + x1_2 - 2 w1 >= 0
 c41: x2_2 + x2_3 + x2_4 + x2_5 - 2 w2 >= 0
 c42: x3_3 + x3_6 - 2 w3 >= 0
 c43: x4_4 + x4_6 + x4_7 - 2 w4 >= 0
 c44: x5_1 + x5_5 + x5_7 - 2 w5 >= 0
Bounds
 0 <= x1_1 <= 1
 0 <= x1_2 <= 1
 0 <= x1_3 <= 1
 0 <= x1_4 <= 1
 0 <= x1_5 <= 1
 0 <= x1_6 <= 1
 0 <= x1_7 <= 1
 0 <= x2_1 <= 1
 0 <= x2_2 <= 1
 0 <= x2_3 <= 1
 0 <= x2_4 <= 1
 0 <= x2_5 <= 1
 0 <= x2_6 <= 1
 0 <= x2_7 <= 1
 0 <= x3_1 <= 1
 0 <= x3_2 <= 1
 0 <= x3_3 <= 1
 0 <= x3_4 <= 1
 0 <= x3_5 <= 1
 0 <= x3_6 <= 1
 0 <= x3_7 <= 1
 0 <= x4_1 <= 1
 0 <= x4_2 <= 1
 0 <= x4_3 <= 1
 0 <= x4_4 <= 1
 0 <= x4_5 <= 1
 0 <= x4_6 <= 1
 0 <= x4_7 <= 1
 0 <= x5_1 <= 1
 0 <= x5_2 <= 1
 0 <= x5_3 <= 1
 0 <= x5_4 <= 1
 0 <= x5_5 <= 1
 0 <= x5_6 <= 1
 0 <= x5_7 <= 1
 0 <= w1 <= 1
 0 <= w2 <= 1
 0 <= w3 <= 1
 0 <= w4 <= 1
 0 <= w5 <= 1
Binaries
 x1_1  x1_2  x1_3  x1_4  x1_5  x1_6  x1_7  x2_1  x2_2  x2_3  x2_4  x2_5  x2_6 
 x2_7  x3_1  x3_2  x3_3  x3_4  x3_5  x3_6  x3_7  x4_1  x4_2  x4_3  x4_4  x4_5 
 x4_6  x4_7  x5_1  x5_2  x5_3  x5_4  x5_5  x5_6  x5_7  w1  w2  w3  w4  w5 
End
